70
1 0 16
2 0 110
2 1 45
3 0 93
3 1 4
3 2 61
4 0 95
4 1 94
4 2 65
4 3 77
5 0 98
5 1 69
5 2 64
5 3 89
5 4 2
6 0 94
6 1 12
6 2 81
6 3 65
6 4 57
6 5 57
7 0 67
7 1 13
7 2 32
7 3 113
7 4 38
7 5 36
7 6 68
8 0 92
8 1 118
8 2 20
8 3 65
8 4 114
8 5 12
8 6 15
8 7 97
9 0 22
9 1 93
9 2 72
9 3 10
9 4 38
9 5 22
9 6 4
9 7 118
9 8 38
10 0 57
10 1 2
10 2 117
10 3 50
10 4 68
10 5 97
10 6 8
10 7 4
10 8 28
10 9 53
11 0 89
11 1 64
11 2 39
11 3 22
11 4 32
11 5 6
11 6 19
11 7 14
11 8 32
11 9 105
11 10 61
12 0 115
12 1 45
12 2 10
12 3 54
12 4 68
12 5 23
12 6 59
12 7 30
12 8 74
12 9 110
12 10 9
12 11 118
13 0 49
13 1 47
13 2 53
13 3 54
13 4 107
13 5 57
13 6 1
13 7 94
13 8 32
13 9 105
13 10 107
13 11 75
13 12 91
14 0 108
14 1 97
14 2 106
14 3 59
14 4 98
14 5 50
14 6 50
14 7 53
14 8 84
14 9 98
14 10 11
14 11 4
14 12 2
14 13 32
15 0 26
15 1 96
15 2 30
15 3 39
15 4 15
15 5 7
15 6 51
15 7 104
15 8 57
15 9 89
15 10 29
15 11 92
15 12 79
15 13 85
15 14 23
16 0 26
16 1 15
16 2 10
16 3 111
16 4 108
16 5 93
16 6 79
16 7 84
16 8 66
16 9 75
16 10 35
16 11 75
16 12 74
16 13 36
16 14 95
16 15 18
17 0 112
17 1 27
17 2 97
17 3 116
17 4 101
17 5 62
17 6 79
17 7 20
17 8 6
17 9 98
17 10 25
17 11 57
17 12 2
17 13 96
17 14 9
17 15 105
17 16 117
18 0 111
18 1 110
18 2 101
18 3 73
18 4 78
18 5 59
18 6 9
18 7 17
18 8 44
18 9 96
18 10 61
18 11 33
18 12 68
18 13 60
18 14 103
18 15 31
18 16 9
18 17 34
19 0 7
19 1 9
19 2 48
19 3 14
19 4 39
19 5 54
19 6 61
19 7 44
19 8 93
19 9 30
19 10 63
19 11 29
19 12 86
19 13 40
19 14 29
19 15 16
19 16 9
19 17 15
19 18 52
20 0 94
20 1 80
20 2 40
20 3 27
20 4 27
20 5 18
20 6 68
20 7 30
20 8 10
20 9 112
20 10 108
20 11 16
20 12 85
20 13 48
20 14 61
20 15 73
20 16 117
20 17 15
20 18 2
20 19 46
21 0 120
21 1 13
21 2 12
21 3 50
21 4 5
21 5 119
21 6 67
21 7 39
21 8 19
21 9 114
21 10 106
21 11 6
21 12 79
21 13 83
21 14 117
21 15 3
21 16 23
21 17 82
21 18 74
21 19 50
21 20 20
22 0 74
22 1 98
22 2 28
22 3 93
22 4 83
22 5 17
22 6 48
22 7 93
22 8 28
22 9 71
22 10 118
22 11 114
22 12 89
22 13 95
22 14 32
22 15 84
22 16 47
22 17 48
22 18 40
22 19 39
22 20 62
22 21 119
23 0 42
23 1 115
23 2 86
23 3 1
23 4 88
23 5 16
23 6 56
23 7 41
23 8 93
23 9 51
23 10 61
23 11 82
23 12 72
23 13 98
23 14 42
23 15 97
23 16 51
23 17 63
23 18 74
23 19 38
23 20 55
23 21 68
23 22 15
24 0 63
24 1 113
24 2 29
24 3 107
24 4 63
24 5 31
24 6 38
24 7 64
24 8 79
24 9 1
24 10 83
24 11 73
24 12 108
24 13 47
24 14 77
24 15 3
24 16 99
24 17 72
24 18 6
24 19 55
24 20 30
24 21 88
24 22 25
24 23 51
25 0 80
25 1 73
25 2 8
25 3 61
25 4 9
25 5 54
25 6 9
25 7 98
25 8 108
25 9 39
25 10 103
25 11 85
25 12 110
25 13 103
25 14 66
25 15 36
25 16 67
25 17 49
25 18 46
25 19 52
25 20 1
25 21 1
25 22 112
25 23 112
25 24 92
26 0 73
26 1 15
26 2 60
26 3 98
26 4 41
26 5 93
26 6 57
26 7 64
26 8 4
26 9 58
26 10 32
26 11 100
26 12 6
26 13 119
26 14 46
26 15 34
26 16 25
26 17 44
26 18 19
26 19 32
26 20 61
26 21 72
26 22 76
26 23 34
26 24 70
26 25 63
27 0 39
27 1 4
27 2 55
27 3 26
27 4 87
27 5 100
27 6 105
27 7 4
27 8 88
27 9 71
27 10 26
27 11 23
27 12 61
27 13 43
27 14 108
27 15 62
27 16 37
27 17 11
27 18 78
27 19 69
27 20 37
27 21 32
27 22 23
27 23 70
27 24 71
27 25 48
27 26 17
28 0 72
28 1 86
28 2 86
28 3 13
28 4 116
28 5 54
28 6 46
28 7 46
28 8 11
28 9 95
28 10 13
28 11 91
28 12 104
28 13 28
28 14 12
28 15 20
28 16 48
28 17 106
28 18 68
28 19 46
28 20 115
28 21 120
28 22 35
28 23 106
28 24 18
28 25 105
28 26 3
28 27 70
29 0 86
29 1 36
29 2 80
29 3 19
29 4 77
29 5 5
29 6 52
29 7 119
29 8 38
29 9 105
29 10 73
29 11 17
29 12 1
29 13 37
29 14 60
29 15 92
29 16 99
29 17 115
29 18 76
29 19 108
29 20 119
29 21 24
29 22 60
29 23 67
29 24 12
29 25 71
29 26 23
29 27 63
29 28 72
30 0 14
30 1 93
30 2 41
30 3 99
30 4 48
30 5 44
30 6 38
30 7 22
30 8 35
30 9 19
30 10 73
30 11 42
30 12 57
30 13 97
30 14 78
30 15 72
30 16 15
30 17 12
30 18 60
30 19 79
30 20 82
30 21 71
30 22 114
30 23 79
30 24 26
30 25 100
30 26 39
30 27 8
30 28 9
30 29 38
31 0 48
31 1 83
31 2 82
31 3 15
31 4 113
31 5 21
31 6 92
31 7 16
31 8 79
31 9 58
31 10 32
31 11 11
31 12 71
31 13 52
31 14 102
31 15 2
31 16 40
31 17 18
31 18 82
31 19 77
31 20 66
31 21 120
31 22 102
31 23 113
31 24 69
31 25 65
31 26 89
31 27 113
31 28 32
31 29 35
31 30 15
32 0 38
32 1 31
32 2 68
32 3 93
32 4 62
32 5 36
32 6 79
32 7 109
32 8 42
32 9 45
32 10 113
32 11 95
32 12 48
32 13 87
32 14 107
32 15 29
32 16 74
32 17 5
32 18 116
32 19 109
32 20 106
32 21 47
32 22 104
32 23 62
32 24 71
32 25 80
32 26 83
32 27 68
32 28 41
32 29 73
32 30 105
32 31 1
33 0 50
33 1 88
33 2 8
33 3 3
33 4 74
33 5 81
33 6 26
33 7 109
33 8 67
33 9 92
33 10 70
33 11 70
33 12 67
33 13 105
33 14 57
33 15 49
33 16 90
33 17 108
33 18 97
33 19 14
33 20 2
33 21 35
33 22 117
33 23 32
33 24 98
33 25 76
33 26 51
33 27 42
33 28 10
33 29 10
33 30 3
33 31 57
33 32 94
34 0 25
34 1 23
34 2 51
34 3 90
34 4 71
34 5 28
34 6 38
34 7 104
34 8 13
34 9 48
34 10 27
34 11 94
34 12 107
34 13 82
34 14 66
34 15 88
34 16 32
34 17 33
34 18 114
34 19 9
34 20 29
34 21 26
34 22 10
34 23 79
34 24 42
34 25 94
34 26 64
34 27 19
34 28 104
34 29 52
34 30 79
34 31 116
34 32 88
34 33 59
35 0 26
35 1 32
35 2 85
35 3 112
35 4 4
35 5 42
35 6 70
35 7 97
35 8 119
35 9 53
35 10 60
35 11 31
35 12 27
35 13 53
35 14 75
35 15 24
35 16 30
35 17 39
35 18 99
35 19 2
35 20 34
35 21 39
35 22 4
35 23 107
35 24 30
35 25 109
35 26 57
35 27 85
35 28 1
35 29 34
35 30 114
35 31 56
35 32 98
35 33 115
35 34 92
36 0 97
36 1 30
36 2 55
36 3 20
36 4 1
36 5 100
36 6 55
36 7 26
36 8 64
36 9 30
36 10 88
36 11 59
36 12 13
36 13 115
36 14 85
36 15 18
36 16 92
36 17 48
36 18 73
36 19 18
36 20 47
36 21 26
36 22 52
36 23 79
36 24 91
36 25 19
36 26 29
36 27 115
36 28 119
36 29 84
36 30 59
36 31 57
36 32 1
36 33 42
36 34 50
36 35 66
37 0 52
37 1 27
37 2 84
37 3 31
37 4 102
37 5 69
37 6 103
37 7 35
37 8 68
37 9 8
37 10 25
37 11 89
37 12 27
37 13 15
37 14 34
37 15 40
37 16 102
37 17 77
37 18 117
37 19 37
37 20 27
37 21 106
37 22 109
37 23 32
37 24 82
37 25 39
37 26 94
37 27 49
37 28 90
37 29 93
37 30 79
37 31 4
37 32 15
37 33 12
37 34 48
37 35 52
37 36 117
38 0 28
38 1 100
38 2 39
38 3 74
38 4 58
38 5 34
38 6 56
38 7 111
38 8 20
38 9 62
38 10 33
38 11 17
38 12 20
38 13 43
38 14 47
38 15 102
38 16 115
38 17 44
38 18 81
38 19 43
38 20 3
38 21 51
38 22 112
38 23 87
38 24 120
38 25 22
38 26 52
38 27 18
38 28 91
38 29 68
38 30 10
38 31 60
38 32 29
38 33 107
38 34 74
38 35 21
38 36 113
38 37 30
39 0 50
39 1 69
39 2 23
39 3 33
39 4 78
39 5 106
39 6 87
39 7 46
39 8 100
39 9 112
39 10 10
39 11 11
39 12 20
39 13 48
39 14 111
39 15 9
39 16 12
39 17 61
39 18 45
39 19 1
39 20 1
39 21 1
39 22 91
39 23 47
39 24 112
39 25 32
39 26 56
39 27 102
39 28 102
39 29 55
39 30 111
39 31 86
39 32 100
39 33 56
39 34 89
39 35 86
39 36 2
39 37 97
39 38 57
40 0 26
40 1 50
40 2 82
40 3 95
40 4 45
40 5 102
40 6 22
40 7 102
40 8 107
40 9 68
40 10 115
40 11 9
40 12 67
40 13 40
40 14 6
40 15 99
40 16 75
40 17 7
40 18 86
40 19 69
40 20 67
40 21 34
40 22 43
40 23 70
40 24 116
40 25 120
40 26 106
40 27 10
40 28 74
40 29 85
40 30 25
40 31 82
40 32 99
40 33 84
40 34 80
40 35 44
40 36 83
40 37 100
40 38 58
40 39 27
41 0 107
41 1 57
41 2 76
41 3 116
41 4 8
41 5 28
41 6 102
41 7 91
41 8 5
41 9 89
41 10 46
41 11 113
41 12 31
41 13 73
41 14 102
41 15 70
41 16 46
41 17 17
41 18 59
41 19 22
41 20 92
41 21 92
41 22 39
41 23 81
41 24 42
41 25 113
41 26 24
41 27 87
41 28 19
41 29 20
41 30 102
41 31 116
41 32 48
41 33 45
41 34 23
41 35 67
41 36 118
41 37 81
41 38 78
41 39 44
41 40 92
42 0 50
42 1 25
42 2 60
42 3 3
42 4 110
42 5 54
42 6 11
42 7 100
42 8 46
42 9 95
42 10 67
42 11 47
42 12 97
42 13 88
42 14 83
42 15 65
42 16 115
42 17 88
42 18 39
42 19 109
42 20 83
42 21 7
42 22 50
42 23 54
42 24 18
42 25 95
42 26 105
42 27 46
42 28 82
42 29 89
42 30 38
42 31 92
42 32 65
42 33 4
42 34 86
42 35 18
42 36 70
42 37 64
42 38 73
42 39 11
42 40 69
42 41 56
43 0 26
43 1 63
43 2 117
43 3 95
43 4 99
43 5 19
43 6 11
43 7 37
43 8 11
43 9 61
43 10 2
43 11 60
43 12 30
43 13 19
43 14 106
43 15 60
43 16 45
43 17 45
43 18 28
43 19 104
43 20 11
43 21 23
43 22 64
43 23 111
43 24 54
43 25 68
43 26 16
43 27 101
43 28 110
43 29 31
43 30 31
43 31 99
43 32 66
43 33 54
43 34 99
43 35 1
43 36 109
43 37 43
43 38 7
43 39 109
43 40 38
43 41 42
43 42 43
44 0 68
44 1 42
44 2 22
44 3 95
44 4 86
44 5 104
44 6 61
44 7 20
44 8 81
44 9 104
44 10 97
44 11 79
44 12 78
44 13 108
44 14 29
44 15 27
44 16 95
44 17 119
44 18 14
44 19 68
44 20 23
44 21 29
44 22 9
44 23 25
44 24 56
44 25 54
44 26 15
44 27 107
44 28 108
44 29 66
44 30 10
44 31 59
44 32 10
44 33 87
44 34 8
44 35 15
44 36 67
44 37 47
44 38 21
44 39 13
44 40 5
44 41 52
44 42 51
44 43 112
45 0 3
45 1 54
45 2 71
45 3 57
45 4 115
45 5 106
45 6 71
45 7 10
45 8 39
45 9 21
45 10 44
45 11 27
45 12 29
45 13 59
45 14 79
45 15 99
45 16 53
45 17 63
45 18 119
45 19 77
45 20 85
45 21 54
45 22 85
45 23 8
45 24 33
45 25 17
45 26 1
45 27 40
45 28 68
45 29 11
45 30 28
45 31 6
45 32 45
45 33 77
45 34 107
45 35 53
45 36 52
45 37 75
45 38 16
45 39 99
45 40 99
45 41 41
45 42 90
45 43 10
45 44 94
46 0 69
46 1 95
46 2 28
46 3 102
46 4 6
46 5 51
46 6 48
46 7 40
46 8 62
46 9 86
46 10 80
46 11 77
46 12 46
46 13 38
46 14 87
46 15 109
46 16 68
46 17 36
46 18 32
46 19 108
46 20 6
46 21 78
46 22 56
46 23 31
46 24 19
46 25 16
46 26 10
46 27 61
46 28 88
46 29 61
46 30 6
46 31 40
46 32 70
46 33 47
46 34 60
46 35 7
46 36 112
46 37 22
46 38 72
46 39 59
46 40 93
46 41 101
46 42 83
46 43 48
46 44 38
46 45 55
47 0 77
47 1 29
47 2 109
47 3 109
47 4 40
47 5 11
47 6 20
47 7 9
47 8 73
47 9 98
47 10 28
47 11 36
47 12 42
47 13 104
47 14 33
47 15 20
47 16 38
47 17 38
47 18 85
47 19 92
47 20 113
47 21 118
47 22 102
47 23 114
47 24 30
47 25 93
47 26 101
47 27 46
47 28 70
47 29 76
47 30 5
47 31 31
47 32 102
47 33 75
47 34 48
47 35 119
47 36 43
47 37 19
47 38 43
47 39 50
47 40 67
47 41 29
47 42 37
47 43 14
47 44 29
47 45 52
47 46 83
48 0 115
48 1 113
48 2 96
48 3 37
48 4 9
48 5 86
48 6 115
48 7 37
48 8 80
48 9 54
48 10 25
48 11 119
48 12 71
48 13 43
48 14 19
48 15 52
48 16 50
48 17 49
48 18 53
48 19 57
48 20 63
48 21 92
48 22 47
48 23 88
48 24 49
48 25 65
48 26 99
48 27 52
48 28 23
48 29 46
48 30 22
48 31 56
48 32 21
48 33 85
48 34 98
48 35 102
48 36 87
48 37 85
48 38 14
48 39 61
48 40 116
48 41 32
48 42 84
48 43 8
48 44 6
48 45 59
48 46 118
48 47 3
49 0 112
49 1 71
49 2 92
49 3 72
49 4 115
49 5 20
49 6 76
49 7 6
49 8 82
49 9 24
49 10 52
49 11 27
49 12 86
49 13 39
49 14 119
49 15 83
49 16 71
49 17 12
49 18 102
49 19 95
49 20 95
49 21 58
49 22 98
49 23 30
49 24 67
49 25 79
49 26 50
49 27 46
49 28 17
49 29 99
49 30 82
49 31 115
49 32 57
49 33 93
49 34 97
49 35 24
49 36 72
49 37 32
49 38 73
49 39 78
49 40 17
49 41 64
49 42 107
49 43 83
49 44 101
49 45 54
49 46 116
49 47 3
49 48 106
50 0 16
50 1 22
50 2 59
50 3 50
50 4 17
50 5 4
50 6 105
50 7 78
50 8 46
50 9 25
50 10 78
50 11 46
50 12 61
50 13 94
50 14 105
50 15 98
50 16 44
50 17 35
50 18 67
50 19 1
50 20 95
50 21 47
50 22 40
50 23 46
50 24 93
50 25 48
50 26 23
50 27 8
50 28 104
50 29 112
50 30 67
50 31 2
50 32 39
50 33 41
50 34 17
50 35 24
50 36 28
50 37 94
50 38 16
50 39 42
50 40 106
50 41 118
50 42 103
50 43 106
50 44 102
50 45 26
50 46 96
50 47 26
50 48 85
50 49 107
51 0 86
51 1 54
51 2 44
51 3 94
51 4 35
51 5 16
51 6 38
51 7 116
51 8 40
51 9 85
51 10 41
51 11 93
51 12 90
51 13 79
51 14 67
51 15 58
51 16 74
51 17 78
51 18 86
51 19 59
51 20 14
51 21 8
51 22 27
51 23 20
51 24 21
51 25 88
51 26 32
51 27 83
51 28 10
51 29 102
51 30 114
51 31 73
51 32 48
51 33 29
51 34 57
51 35 86
51 36 117
51 37 71
51 38 74
51 39 91
51 40 102
51 41 27
51 42 22
51 43 105
51 44 36
51 45 71
51 46 120
51 47 97
51 48 54
51 49 63
51 50 94
52 0 56
52 1 18
52 2 110
52 3 118
52 4 6
52 5 109
52 6 49
52 7 23
52 8 14
52 9 33
52 10 26
52 11 1
52 12 21
52 13 108
52 14 27
52 15 33
52 16 82
52 17 7
52 18 107
52 19 12
52 20 66
52 21 66
52 22 84
52 23 17
52 24 60
52 25 11
52 26 14
52 27 2
52 28 114
52 29 83
52 30 37
52 31 100
52 32 28
52 33 84
52 34 18
52 35 17
52 36 29
52 37 41
52 38 20
52 39 114
52 40 118
52 41 7
52 42 61
52 43 52
52 44 60
52 45 120
52 46 11
52 47 73
52 48 14
52 49 35
52 50 58
52 51 5
53 0 16
53 1 24
53 2 24
53 3 40
53 4 29
53 5 9
53 6 54
53 7 9
53 8 51
53 9 98
53 10 66
53 11 41
53 12 117
53 13 33
53 14 62
53 15 4
53 16 5
53 17 81
53 18 58
53 19 81
53 20 97
53 21 17
53 22 9
53 23 40
53 24 3
53 25 104
53 26 106
53 27 100
53 28 97
53 29 53
53 30 66
53 31 63
53 32 82
53 33 50
53 34 22
53 35 20
53 36 47
53 37 23
53 38 16
53 39 78
53 40 117
53 41 80
53 42 40
53 43 93
53 44 114
53 45 45
53 46 87
53 47 23
53 48 106
53 49 113
53 50 50
53 51 28
53 52 62
54 0 18
54 1 91
54 2 31
54 3 22
54 4 116
54 5 37
54 6 89
54 7 37
54 8 19
54 9 47
54 10 36
54 11 24
54 12 73
54 13 112
54 14 22
54 15 43
54 16 30
54 17 55
54 18 13
54 19 4
54 20 38
54 21 77
54 22 61
54 23 104
54 24 38
54 25 95
54 26 38
54 27 82
54 28 106
54 29 8
54 30 13
54 31 102
54 32 69
54 33 46
54 34 16
54 35 90
54 36 116
54 37 25
54 38 62
54 39 44
54 40 113
54 41 104
54 42 87
54 43 110
54 44 102
54 45 113
54 46 3
54 47 6
54 48 105
54 49 101
54 50 80
54 51 11
54 52 120
54 53 90
55 0 86
55 1 39
55 2 25
55 3 59
55 4 16
55 5 39
55 6 108
55 7 112
55 8 38
55 9 92
55 10 75
55 11 9
55 12 20
55 13 34
55 14 78
55 15 113
55 16 67
55 17 32
55 18 120
55 19 92
55 20 75
55 21 82
55 22 97
55 23 39
55 24 40
55 25 42
55 26 43
55 27 31
55 28 27
55 29 17
55 30 1
55 31 84
55 32 35
55 33 22
55 34 101
55 35 89
55 36 39
55 37 117
55 38 109
55 39 40
55 40 39
55 41 104
55 42 22
55 43 90
55 44 87
55 45 64
55 46 97
55 47 95
55 48 56
55 49 36
55 50 18
55 51 29
55 52 30
55 53 45
55 54 76
56 0 27
56 1 73
56 2 51
56 3 75
56 4 75
56 5 42
56 6 3
56 7 74
56 8 76
56 9 88
56 10 1
56 11 70
56 12 3
56 13 51
56 14 70
56 15 32
56 16 100
56 17 112
56 18 94
56 19 81
56 20 53
56 21 33
56 22 99
56 23 18
56 24 46
56 25 106
56 26 18
56 27 93
56 28 23
56 29 21
56 30 39
56 31 107
56 32 25
56 33 21
56 34 26
56 35 11
56 36 28
56 37 16
56 38 110
56 39 114
56 40 29
56 41 10
56 42 54
56 43 32
56 44 93
56 45 90
56 46 24
56 47 84
56 48 74
56 49 24
56 50 72
56 51 119
56 52 93
56 53 30
56 54 60
56 55 26
57 0 7
57 1 54
57 2 34
57 3 82
57 4 82
57 5 19
57 6 83
57 7 52
57 8 84
57 9 6
57 10 95
57 11 74
57 12 14
57 13 11
57 14 78
57 15 113
57 16 16
57 17 96
57 18 77
57 19 18
57 20 96
57 21 31
57 22 56
57 23 21
57 24 113
57 25 40
57 26 29
57 27 49
57 28 40
57 29 120
57 30 32
57 31 35
57 32 38
57 33 83
57 34 44
57 35 3
57 36 44
57 37 11
57 38 109
57 39 39
57 40 43
57 41 104
57 42 96
57 43 42
57 44 62
57 45 15
57 46 23
57 47 23
57 48 36
57 49 83
57 50 77
57 51 93
57 52 80
57 53 60
57 54 113
57 55 101
57 56 57
58 0 73
58 1 107
58 2 56
58 3 9
58 4 80
58 5 80
58 6 33
58 7 27
58 8 109
58 9 83
58 10 25
58 11 103
58 12 110
58 13 6
58 14 91
58 15 60
58 16 93
58 17 98
58 18 83
58 19 27
58 20 42
58 21 119
58 22 109
58 23 56
58 24 94
58 25 97
58 26 107
58 27 17
58 28 61
58 29 68
58 30 109
58 31 93
58 32 33
58 33 47
58 34 107
58 35 90
58 36 13
58 37 53
58 38 76
58 39 93
58 40 13
58 41 66
58 42 98
58 43 18
58 44 58
58 45 31
58 46 112
58 47 59
58 48 41
58 49 96
58 50 22
58 51 2
58 52 9
58 53 53
58 54 92
58 55 63
58 56 35
58 57 27
59 0 43
59 1 68
59 2 83
59 3 6
59 4 66
59 5 76
59 6 54
59 7 80
59 8 60
59 9 32
59 10 95
59 11 117
59 12 34
59 13 42
59 14 108
59 15 78
59 16 56
59 17 4
59 18 58
59 19 18
59 20 119
59 21 21
59 22 56
59 23 57
59 24 46
59 25 10
59 26 80
59 27 30
59 28 107
59 29 111
59 30 53
59 31 11
59 32 9
59 33 33
59 34 92
59 35 33
59 36 100
59 37 64
59 38 6
59 39 13
59 40 11
59 41 21
59 42 84
59 43 77
59 44 59
59 45 9
59 46 48
59 47 64
59 48 94
59 49 60
59 50 45
59 51 27
59 52 109
59 53 32
59 54 35
59 55 90
59 56 100
59 57 46
59 58 54
60 0 100
60 1 84
60 2 11
60 3 56
60 4 16
60 5 100
60 6 1
60 7 78
60 8 82
60 9 73
60 10 3
60 11 79
60 12 117
60 13 46
60 14 117
60 15 30
60 16 32
60 17 95
60 18 35
60 19 16
60 20 118
60 21 29
60 22 15
60 23 31
60 24 30
60 25 46
60 26 90
60 27 11
60 28 13
60 29 107
60 30 13
60 31 79
60 32 93
60 33 97
60 34 101
60 35 52
60 36 4
60 37 33
60 38 36
60 39 41
60 40 88
60 41 53
60 42 16
60 43 56
60 44 100
60 45 108
60 46 73
60 47 23
60 48 63
60 49 109
60 50 106
60 51 116
60 52 48
60 53 13
60 54 62
60 55 96
60 56 84
60 57 95
60 58 35
60 59 23
61 0 5
61 1 85
61 2 3
61 3 35
61 4 21
61 5 119
61 6 93
61 7 24
61 8 94
61 9 93
61 10 109
61 11 107
61 12 32
61 13 56
61 14 92
61 15 20
61 16 112
61 17 105
61 18 99
61 19 62
61 20 37
61 21 73
61 22 88
61 23 118
61 24 30
61 25 42
61 26 81
61 27 13
61 28 17
61 29 4
61 30 80
61 31 105
61 32 49
61 33 10
61 34 113
61 35 6
61 36 11
61 37 4
61 38 79
61 39 37
61 40 19
61 41 44
61 42 24
61 43 29
61 44 110
61 45 41
61 46 17
61 47 102
61 48 76
61 49 19
61 50 68
61 51 43
61 52 22
61 53 81
61 54 17
61 55 46
61 56 53
61 57 62
61 58 53
61 59 85
61 60 75
62 0 60
62 1 14
62 2 33
62 3 109
62 4 48
62 5 11
62 6 27
62 7 112
62 8 79
62 9 106
62 10 105
62 11 7
62 12 72
62 13 68
62 14 20
62 15 63
62 16 18
62 17 21
62 18 112
62 19 94
62 20 16
62 21 52
62 22 108
62 23 91
62 24 90
62 25 23
62 26 53
62 27 89
62 28 82
62 29 103
62 30 43
62 31 16
62 32 112
62 33 97
62 34 38
62 35 50
62 36 63
62 37 62
62 38 75
62 39 104
62 40 53
62 41 101
62 42 62
62 43 115
62 44 63
62 45 100
62 46 21
62 47 65
62 48 32
62 49 104
62 50 6
62 51 19
62 52 74
62 53 6
62 54 35
62 55 14
62 56 37
62 57 19
62 58 42
62 59 21
62 60 36
62 61 75
63 0 4
63 1 114
63 2 40
63 3 26
63 4 67
63 5 53
63 6 82
63 7 61
63 8 55
63 9 29
63 10 82
63 11 39
63 12 30
63 13 37
63 14 62
63 15 79
63 16 50
63 17 54
63 18 38
63 19 90
63 20 115
63 21 102
63 22 91
63 23 55
63 24 64
63 25 25
63 26 60
63 27 116
63 28 20
63 29 55
63 30 21
63 31 57
63 32 93
63 33 11
63 34 108
63 35 63
63 36 22
63 37 61
63 38 52
63 39 119
63 40 31
63 41 114
63 42 46
63 43 115
63 44 48
63 45 109
63 46 28
63 47 112
63 48 69
63 49 18
63 50 5
63 51 32
63 52 53
63 53 81
63 54 114
63 55 68
63 56 49
63 57 30
63 58 10
63 59 63
63 60 84
63 61 42
63 62 35
64 0 69
64 1 78
64 2 82
64 3 110
64 4 4
64 5 99
64 6 69
64 7 60
64 8 114
64 9 93
64 10 107
64 11 7
64 12 68
64 13 60
64 14 43
64 15 62
64 16 27
64 17 96
64 18 42
64 19 28
64 20 23
64 21 28
64 22 68
64 23 91
64 24 63
64 25 45
64 26 17
64 27 42
64 28 24
64 29 54
64 30 15
64 31 97
64 32 114
64 33 73
64 34 49
64 35 79
64 36 70
64 37 63
64 38 52
64 39 87
64 40 96
64 41 109
64 42 41
64 43 86
64 44 75
64 45 24
64 46 53
64 47 33
64 48 15
64 49 69
64 50 4
64 51 74
64 52 2
64 53 109
64 54 2
64 55 93
64 56 17
64 57 57
64 58 106
64 59 119
64 60 20
64 61 54
64 62 112
64 63 106
65 0 107
65 1 49
65 2 104
65 3 33
65 4 113
65 5 74
65 6 12
65 7 115
65 8 100
65 9 68
65 10 42
65 11 88
65 12 75
65 13 22
65 14 63
65 15 50
65 16 86
65 17 80
65 18 96
65 19 94
65 20 47
65 21 95
65 22 55
65 23 70
65 24 34
65 25 29
65 26 115
65 27 7
65 28 101
65 29 28
65 30 25
65 31 76
65 32 41
65 33 65
65 34 2
65 35 91
65 36 25
65 37 77
65 38 31
65 39 118
65 40 72
65 41 74
65 42 23
65 43 93
65 44 63
65 45 6
65 46 118
65 47 88
65 48 109
65 49 1
65 50 36
65 51 7
65 52 58
65 53 103
65 54 78
65 55 74
65 56 36
65 57 71
65 58 91
65 59 95
65 60 37
65 61 86
65 62 13
65 63 1
65 64 40
66 0 13
66 1 68
66 2 93
66 3 29
66 4 31
66 5 76
66 6 45
66 7 41
66 8 94
66 9 88
66 10 82
66 11 13
66 12 30
66 13 70
66 14 98
66 15 112
66 16 72
66 17 79
66 18 56
66 19 51
66 20 80
66 21 17
66 22 13
66 23 47
66 24 91
66 25 118
66 26 73
66 27 81
66 28 13
66 29 105
66 30 88
66 31 42
66 32 89
66 33 46
66 34 77
66 35 7
66 36 15
66 37 50
66 38 56
66 39 41
66 40 62
66 41 101
66 42 48
66 43 51
66 44 117
66 45 109
66 46 118
66 47 80
66 48 51
66 49 100
66 50 67
66 51 85
66 52 28
66 53 75
66 54 114
66 55 8
66 56 21
66 57 3
66 58 114
66 59 62
66 60 96
66 61 35
66 62 20
66 63 94
66 64 60
66 65 107
67 0 20
67 1 25
67 2 101
67 3 80
67 4 25
67 5 49
67 6 115
67 7 97
67 8 102
67 9 21
67 10 8
67 11 93
67 12 17
67 13 10
67 14 44
67 15 9
67 16 46
67 17 69
67 18 113
67 19 42
67 20 76
67 21 60
67 22 48
67 23 51
67 24 28
67 25 32
67 26 37
67 27 4
67 28 29
67 29 35
67 30 97
67 31 61
67 32 72
67 33 28
67 34 99
67 35 84
67 36 14
67 37 25
67 38 97
67 39 91
67 40 107
67 41 16
67 42 109
67 43 72
67 44 86
67 45 77
67 46 11
67 47 35
67 48 46
67 49 54
67 50 57
67 51 69
67 52 18
67 53 116
67 54 119
67 55 28
67 56 84
67 57 78
67 58 16
67 59 14
67 60 46
67 61 30
67 62 37
67 63 120
67 64 64
67 65 4
67 66 28
68 0 63
68 1 15
68 2 88
68 3 27
68 4 3
68 5 21
68 6 67
68 7 44
68 8 100
68 9 70
68 10 87
68 11 115
68 12 58
68 13 33
68 14 37
68 15 84
68 16 109
68 17 106
68 18 32
68 19 55
68 20 52
68 21 47
68 22 5
68 23 85
68 24 36
68 25 44
68 26 14
68 27 97
68 28 111
68 29 95
68 30 34
68 31 104
68 32 28
68 33 65
68 34 78
68 35 93
68 36 71
68 37 9
68 38 67
68 39 80
68 40 45
68 41 111
68 42 119
68 43 115
68 44 16
68 45 116
68 46 16
68 47 68
68 48 92
68 49 64
68 50 7
68 51 16
68 52 42
68 53 119
68 54 109
68 55 34
68 56 55
68 57 33
68 58 104
68 59 23
68 60 7
68 61 43
68 62 103
68 63 8
68 64 47
68 65 112
68 66 90
68 67 35
69 0 57
69 1 70
69 2 66
69 3 37
69 4 115
69 5 21
69 6 99
69 7 69
69 8 74
69 9 57
69 10 33
69 11 4
69 12 88
69 13 2
69 14 43
69 15 9
69 16 6
69 17 95
69 18 25
69 19 100
69 20 3
69 21 42
69 22 48
69 23 34
69 24 87
69 25 30
69 26 24
69 27 77
69 28 59
69 29 5
69 30 42
69 31 96
69 32 18
69 33 28
69 34 77
69 35 117
69 36 67
69 37 108
69 38 87
69 39 85
69 40 72
69 41 98
69 42 107
69 43 118
69 44 4
69 45 42
69 46 104
69 47 2
69 48 90
69 49 65
69 50 95
69 51 116
69 52 47
69 53 117
69 54 110
69 55 95
69 56 34
69 57 56
69 58 92
69 59 89
69 60 35
69 61 79
69 62 81
69 63 53
69 64 111
69 65 119
69 66 4
69 67 51
69 68 97
